NAME: my_tsp_file
TYPE: TSP
DIMENSIONS: 5
EDGE_WEIGHT_TYPE: EUC_2D
NODE_COORD_SECTION
Kyiv 50.4504 30.5245
Kharkiv 50.002 36.3074
Lviv 49.8397 24.0297
Varash 51.3437 25.8491
Odessa 46.4702 30.7306
EOF
